191 928 779 676 832 532 508 379 178 99
402 853 832 844 682 620 746 470 269 303
685 647 424 289 194 261 102 38 12 0
34 111 349 184 565 602 424 620 709 717
0 34 717 455 261 156 376 108 779 801
933 738 640 123 476 289 565 181 38 12
902 587 507 393 455 381 289 301 191 246
806 685 587 532 376 476 301 278 246 165
743 833 178 583 353 393 676 723 123 20
111 184 266 355 584 682 780 834 873 906
